p cnf 12 25
12 -11 9 0
12 -11 -5 0
-12 10 -9 0
12 10 4 0
-12 7 -5 0
-12 6 1 0
-11 -9 -7 0
11 -7 1 0
-11 4 -3 0
10 9 5 0
-10 4 3 0
10 4 2 0
9 -8 -2 0
-9 -6 3 0
-9 4 -1 0
-8 7 -2 0
-8 7 -1 0
-8 3 -1 0
-8 -2 1 0
-7 -5 2 0
6 5 -1 0
-6 4 -3 0
6 -3 2 0
6 2 -1 0
-5 -3 -1 0
